c partition 3 of 3
p cnf 24 33
-16 -22 -8 -11 0
-21 20 -24 4 0
14 16 1 9 0
16 2 -10 20 0
-16 14 1 -2 0
-19 18 -4 21 0
23 -14 -4 -11 0
-14 10 1 17 0
24 -15 11 21 0
13 -19 21 -7 0
-7 -1 -15 -11 0
10 15 -11 9 0
-8 -14 -19 11 0
24 -10 22 -13 0
-11 -15 9 -20 0
12 -21 10 -4 0
-8 -7 -18 20 0
-21 23 -6 -5 0
-13 15 -10 -23 0
6 15 24 -11 0
-22 -9 -14 3 0
7 -20 -11 15 0
-16 1 -23 8 0
24 -4 -23 -1 0
7 9 -1 -6 0
22 -6 -7 -17 0
-1 -17 3 -23 0
10 6 4 15 0
-16 1 -13 -6 0
21 6 23 -19 0
-5 2 -10 -6 0
-7 11 3 -18 0
9 -1 -11 12 0
